\ENCODING=ISO-8859-1
\Problem name: harkka

Minimize
 obj: 2061.259 x1 + 1774.702 x2 + 1463.227 x3 + 1124.667 x4 + 756.667 x5
      + 2460.281 m + 92000
Subject To
 c1: m  = 145
 c2: m >= 135
 c3: 0.8 x1 - 0.06666667 x2 + 0.92 m >= 125
 c4: 0.736 x1 + 0.8 x2 - 0.06666667 x3 + 0.8464 m >= 150
 c5: 0.67712 x1 + 0.736 x2 + 0.8 x3 - 0.06666667 x4 + 0.778688 m >= 170
 c6: 0.62295 x1 + 0.67712 x2 + 0.736 x3 + 0.8 x4 - 0.06666667 x5 + 0.71639 m
     >= 160
 c7: 0.5731 x1 + 0.62295 x2 + 0.67712 x3 + 0.736 x4 + 0.8 x5 + 0.65908 m >= 180
End
